NAME : rnd0_50.tsp
TYPE : TSP
DIMENSION : 50
EDGE_WEIGHT_TYPE : EUC_2D
NODE_COORD_SECTION
1 506 419
2 944 596
3 542 560
4 432 495
5 702 197
6 216 409
7 44 28
8 812 293
9 881 692
10 87 808
11 525 854
12 251 197
13 780 6
14 283 262
15 146 884
16 395 113
17 29 205
18 780 359
19 881 199
20 210 456
21 652 112
22 778 957
23 330 50
24 301 605
25 862 854
26 895 559
27 554 137
28 559 453
29 473 521
30 757 43
31 663 376
32 680 983
33 130 705
34 828 752
35 690 603
36 457 410
37 323 462
38 339 418
39 260 733
40 203 113
41 246 129
42 813 238
43 511 497
44 242 222
45 304 401
46 763 147
47 80 649
48 620 924
49 682 663
50 239 994
